27
6
4 3 20 14 17 15 26 7 24 1 25 19 16 6 0 21 13 12 10 22 2 5 8 9 23 18
3 2 4 18 17 19 20 25 26 22 11 12 21
24 7 12 4 14 6 2 26
0 19 6 9 20 2 24 16 12 10 23 3 4 15 18 8 13 25
8 13 9 2 22 6 15
16 20 9 1 17 10 14 22
